\ Model opf_with_dc_load_flow_copy_copy
\ LP format - for model browsing. Use MPS format to capture full model detail.
Minimize
 
Subject To
 power_flow_365_2: 54.94505494505496 theta_365[2]
   - 172.8574455847183 theta_365[3] + 54.94505494505496 theta_365[4]
   + 62.96733569460844 theta_365[11] = 0
 power_flow_365_3: 54.94505494505496 theta_365[3]
   - 163.86211191406 theta_365[4] + 54.94505494505496 theta_365[5]
   + 53.97200202395009 theta_365[12] = 0
 power_flow_365_4: 54.94505494505496 theta_365[4]
   - 109.8901098901099 theta_365[5] + 54.94505494505496 theta_365[6] = 0
 power_flow_365_5: 54.94505494505496 theta_365[5]
   - 172.8574455847183 theta_365[6] + 54.94505494505496 theta_365[7]
   + 62.96733569460844 theta_365[16] = 0
 power_flow_365_6: 54.94505494505496 theta_365[6]
   - 109.8901098901099 theta_365[7] + 54.94505494505496 theta_365[8] = 0
 power_flow_365_7: 54.94505494505496 theta_365[7]
   - 109.8901098901099 theta_365[8] + 54.94505494505496 theta_365[9] = 0
 power_flow_365_8: 54.94505494505496 theta_365[8]
   - 172.8574455847183 theta_365[9] + 54.94505494505496 theta_365[10]
   + 62.96733569460844 theta_365[17] = 0
 power_flow_365_9: 54.94505494505496 theta_365[9]
   - 117.9123906396634 theta_365[10] + 62.96733569460844 theta_365[18] = 0
 power_flow_365_10: 62.96733569460844 theta_365[3]
   - 62.96733569460844 theta_365[11] = 0.0782714411739774
 power_flow_365_11: 53.97200202395009 theta_365[4]
   - 107.9440040479002 theta_365[12] + 53.97200202395009 theta_365[13] = 0
 power_flow_365_12: 53.97200202395009 theta_365[12]
   - 107.9440040479002 theta_365[13] + 53.97200202395009 theta_365[14] = 0
 power_flow_365_13: 53.97200202395009 theta_365[13]
   - 116.9393377185585 theta_365[14] + 62.96733569460844 theta_365[15] = 0
 power_flow_365_14: 62.96733569460844 theta_365[14]
   - 62.96733569460844 theta_365[15] = 0.0782714411739774
 power_flow_365_15: 62.96733569460844 theta_365[6]
   - 62.96733569460844 theta_365[16] = 0.0782714411739774
 power_flow_365_16: 62.96733569460844 theta_365[9]
   - 62.96733569460844 theta_365[17] = 0.0782714411739774
 power_flow_365_17: 62.96733569460844 theta_365[10]
   - 62.96733569460844 theta_365[18] = 0.0782714411739774
 abs_current_mag_ka_pos_1_365: - 79.30635565791562 theta_365[2]
   + 79.30635565791562 theta_365[3] + abs_current_mag_ka_1_365 >= 0
 abs_current_mag_constraint_365_1: abs_current_mag_ka_1_365
   <= 0.5204157861574824
Bounds
 theta_365[2] free
 theta_365[3] free
 theta_365[4] free
 theta_365[5] free
 theta_365[6] free
 theta_365[7] free
 theta_365[8] free
 theta_365[9] free
 theta_365[10] free
 theta_365[11] free
 theta_365[12] free
 theta_365[13] free
 theta_365[14] free
 theta_365[15] free
 theta_365[16] free
 theta_365[17] free
 theta_365[18] free
 abs_current_mag_ka_1_365 free
End
